NAME : N60ft308.dat.10976.tour
COMMENT : Length = 10976
COMMENT : Found by LKH [Keld Helsgaun] Tue May  2 05:19:43 2017
TYPE : TOUR
DIMENSION : 60
TOUR_SECTION
1
10
23
26
15
30
7
2
41
43
25
18
24
44
12
28
13
22
39
17
58
8
14
21
52
48
32
11
33
56
47
31
34
35
45
29
5
49
9
51
38
50
42
37
36
55
57
27
60
4
3
40
19
6
46
53
20
59
54
16
-1
EOF
